c Reduced graph for GEOM50_5 generated by Cyril Grelier
p edge 32 75
v 1 10
v 2 10
v 3 10
v 4 10
v 5 10
v 6 10
v 7 9
v 8 9
v 9 9
v 10 8
v 11 8
v 12 8
v 13 8
v 14 7
v 15 7
v 16 7
v 17 7
v 18 7
v 19 7
v 20 7
v 21 6
v 22 5
v 23 5
v 24 5
v 25 4
v 26 4
v 27 3
v 28 3
v 29 2
v 30 2
v 31 2
v 32 2
e 1 2
e 1 10
e 1 12
e 1 21
e 1 22
e 1 25
e 2 12
e 2 21
e 2 22
e 2 25
e 3 6
e 3 7
e 3 15
e 3 26
e 3 29
e 4 14
e 4 32
e 5 12
e 5 24
e 6 26
e 7 15
e 7 26
e 7 27
e 7 29
e 7 32
e 8 11
e 8 16
e 8 28
e 8 30
e 8 31
e 9 18
e 9 19
e 10 13
e 10 21
e 10 22
e 10 25
e 11 16
e 11 28
e 11 30
e 11 31
e 12 21
e 13 25
e 13 28
e 14 17
e 14 20
e 14 23
e 14 27
e 14 32
e 15 23
e 15 26
e 15 27
e 15 29
e 16 28
e 16 30
e 16 31
e 17 20
e 17 23
e 17 27
e 17 32
e 18 19
e 18 24
e 19 24
e 20 24
e 21 22
e 21 25
e 22 25
e 23 27
e 23 29
e 26 27
e 26 29
e 27 29
e 27 32
e 28 30
e 28 31
e 30 31
